* ENCODING=ISO-8859-1
NAME          ilog.cplex
ROWS
 N  obj1    
 G  c1      
 L  c2      
 L  c3      
 L  c4      
 L  c5      
 L  c6      
 L  c7      
 E  c8      
 E  c9      
 E  c10     
 L  c11     
 E  c12     
 L  c13     
 G  c14     
 G  c15     
 G  c16     
 L  c17     
 G  c18     
 L  c19     
 G  c20     
 L  c21     
 G  c22     
 L  c23     
 G  c24     
 L  c25     
 G  c26     
 L  c27     
 G  c28     
 L  c29     
 G  c30     
 L  c31     
 G  c32     
 L  c33     
 G  c34     
 L  c35     
 G  c36     
 G  c37     
 L  c38     
 L  c39     
COLUMNS
    t         obj1                           -1
    t         c10                             1
    t         c15                             1
    MARK0000  'MARKER'                 'INTORG'
    x2        c1                              4
    x2        c2                              4
    x2        c3                              3
    x2        c5                              1
    x2        c11                            -4
    x2        c13                             1
    x2        c14                             1
    x3        c1                              2
    x3        c2                              2
    x3        c4                              1
    x3        c6                              1
    x3        c11                            -2
    x3        c13                             1
    x3        c14                             1
    x4        c1                              3
    x4        c2                              3
    x4        c5                              1
    x4        c7                              2
    x4        c11                            -3
    x4        c13                             1
    x4        c14                             1
    x5        c1                              5
    x5        c2                              5
    x5        c3                              1
    x5        c5                              2
    x5        c6                              1
    x5        c7                              1
    x5        c11                            -5
    x5        c13                             1
    x5        c14                             1
    x6        c1                              1
    x6        c2                              1
    x6        c4                              1
    x6        c11                            -1
    x6        c13                             1
    x6        c14                             1
    x7        c3                             -2
    x7        c4                             -1
    x7        c5                             -1
    x7        c7                             -1
    x7        c8                              1
    x8        c3                             -2
    x8        c4                             -1
    x8        c5                             -2
    x8        c7                             -1
    x8        c8                              1
    x9        c3                             -2
    x9        c4                             -1
    x9        c6                             -1
    x9        c7                             -1
    x9        c8                              1
    x10       c4                             -2
    x10       c6                             -1
    x10       c7                             -2
    x10       c8                              1
    x11       c4                             -1
    x11       c5                             -2
    x11       c6                             -1
    x11       c7                             -2
    x11       c8                              1
    MARK0001  'MARKER'                 'INTEND'
    Avar      c8                             -1
    Avar      c9                              1
    A_hat_0   c9                             -1
    A_hat_0   c18                             1
    A_hat_0   c19                             1
    A_hat_0   c36             -5.94117647058824
    A_hat_0   c37                            -2
    A_hat_0   c38                            -2
    A_hat_0   c39             -5.94117647058824
    A_hat_1   c9                             -1
    A_hat_1   c22                             1
    A_hat_1   c23                             1
    A_hat_1   c36                            -6
    A_hat_1   c37                            -1
    A_hat_1   c38                            -1
    A_hat_1   c39                            -6
    A_hat_2   c9                             -1
    A_hat_2   c26                             1
    A_hat_2   c27                             1
    A_hat_2   c36                            -4
    A_hat_2   c37                            -1
    A_hat_2   c38                            -1
    A_hat_2   c39                            -4
    A_hat_3   c9                             -1
    A_hat_3   c30                             1
    A_hat_3   c31                             1
    A_hat_3   c36                            -3
    A_hat_3   c37                            -1
    A_hat_3   c38                            -1
    A_hat_3   c39                            -3
    A_hat_4   c9                             -1
    A_hat_4   c34                             1
    A_hat_4   c35                             1
    A_hat_4   c36                          -2.4
    A_hat_4   c39                          -2.4
    t_hat_0   c10                            -1
    t_hat_0   c16                             1
    t_hat_0   c17                             1
    t_hat_0   c36                            -2
    t_hat_0   c37                            -1
    t_hat_0   c38                            -2
    t_hat_0   c39                            -1
    t_hat_1   c10                            -1
    t_hat_1   c20                             1
    t_hat_1   c21                             1
    t_hat_1   c36                            -3
    t_hat_1   c37                            -2
    t_hat_1   c38                            -3
    t_hat_1   c39                            -2
    t_hat_2   c10                            -1
    t_hat_2   c24                             1
    t_hat_2   c25                             1
    t_hat_2   c36                            -4
    t_hat_2   c37                            -3
    t_hat_2   c38                            -4
    t_hat_2   c39                            -3
    t_hat_3   c10                            -1
    t_hat_3   c28                             1
    t_hat_3   c29                             1
    t_hat_3   c36                            -5
    t_hat_3   c37                            -4
    t_hat_3   c38                            -5
    t_hat_3   c39                            -4
    t_hat_4   c10                            -1
    t_hat_4   c32                             1
    t_hat_4   c33                             1
    t_hat_4   c36                            -6
    t_hat_4   c37                            -5
    t_hat_4   c38                            -6
    t_hat_4   c39                            -5
    w         c11                             1
    w         c36                             1
    w         c37                             1
    w         c38                             1
    w         c39                             1
    MARK0002  'MARKER'                 'INTORG'
    z_0       c12                             1
    z_0       c16                          -2.5
    z_0       c17             -5.94117647058824
    z_0       c18                            -1
    z_0       c19                            -2
    z_0       c36              11.8823529411765
    z_0       c37                             2
    z_0       c38                             4
    z_0       c39              5.94117647058824
    z_1       c12                             1
    z_1       c20             -1.66666666666667
    z_1       c21                            -6
    z_1       c22                            -2
    z_1       c23                            -3
    z_1       c36                            18
    z_1       c37                             2
    z_1       c38                             3
    z_1       c39                            12
    z_2       c12                             1
    z_2       c24                         -1.25
    z_2       c25                            -4
    z_2       c26                            -3
    z_2       c27                            -4
    z_2       c36                            16
    z_2       c37                             3
    z_2       c38                             4
    z_2       c39                            12
    z_3       c12                             1
    z_3       c28                            -1
    z_3       c29                            -3
    z_3       c30                            -4
    z_3       c31                            -5
    z_3       c36                            15
    z_3       c37                             4
    z_3       c38                             5
    z_3       c39                            12
    z_4       c12                             1
    z_4       c32            -0.833333333333333
    z_4       c33                          -2.4
    z_4       c34                            -5
    z_4       c35                            -6
    z_4       c36                          14.4
    z_4       c39                            12
    MARK0003  'MARKER'                 'INTEND'
RHS
    rhs       c1                              5
    rhs       c2                             12
    rhs       c12                             1
    rhs       c13                             4
    rhs       c14                             1
    rhs       c15                      -0.00001
BOUNDS
 LO bnd       t                               1
 UP bnd       t                              12
 BV bnd       x2      
 BV bnd       x3      
 BV bnd       x4      
 BV bnd       x5      
 BV bnd       x6      
 BV bnd       x7      
 BV bnd       x8      
 BV bnd       x9      
 BV bnd       x10     
 BV bnd       x11     
 UP bnd       Avar                            5
 UP bnd       A_hat_0                         5
 UP bnd       A_hat_1                         5
 UP bnd       A_hat_2                         5
 UP bnd       A_hat_3                         5
 UP bnd       A_hat_4                         5
 UP bnd       t_hat_0                        12
 UP bnd       t_hat_1                        12
 UP bnd       t_hat_2                        12
 UP bnd       t_hat_3                        12
 UP bnd       t_hat_4                        12
 UP bnd       w                              60
 BV bnd       z_0     
 BV bnd       z_1     
 BV bnd       z_2     
 BV bnd       z_3     
 BV bnd       z_4     
ENDATA
